c Random generated cnf formula, satisfiable: false
p cnf 10 50
7 -9 5 0
-10 -4 3 0
-4 8 9 0
-1 5 -8 0
2 -7 -3 0
5 -1 -9 0
5 -6 4 0
-4 8 -6 0
-2 -8 6 0
-6 -8 1 0
5 4 -1 0
10 1 5 0
8 2 -5 0
3 7 -9 0
-10 9 -7 0
3 8 -6 0
-9 -5 -6 0
-2 7 9 0
2 6 -7 0
-8 -5 6 0
-10 -5 -4 0
-10 -5 -4 0
-3 -2 -9 0
-1 -6 9 0
-8 -6 10 0
5 8 6 0
-8 -4 -3 0
-8 -2 -5 0
-10 7 -6 0
2 -5 -8 0
-3 9 -6 0
8 10 9 0
7 3 5 0
-3 7 -8 0
-4 -7 9 0
6 -7 -3 0
-6 5 -10 0
-10 -9 -5 0
-2 -4 8 0
5 -9 7 0
4 -6 9 0
1 8 2 0
-7 4 8 0
-5 -7 -10 0
5 9 -3 0
7 -1 -4 0
1 -8 -6 0
5 3 -6 0
-10 -1 -2 0
2 8 -9 0
